proyfinal/src/viki/013/experimentInOfficeAgust.take6.output/d1b2df9e-a6c3-4632-b4e9-97cf2087d866.als.out
Reading from standard input... Use '--help' for help.
============================[ Problem Statistics ]=============================
|                                                                             |
|  Number of variables:         87638                                         |
|  Number of clauses:          161767                                         |
|  Parse time:                   0.04 s                                       |
|                                                                             |
============================[ Search Statistics ]==============================
| Conflicts |          ORIGINAL         |          LEARNT          | Progress |
|           |    Vars  Clauses Literals |    Limit  Clauses Lit/Cl |          |
===============================================================================
|       100 |   62817   106697   266625 |    39122      100     14 | 28.322 % |
|       250 |   62817   106697   266625 |    43034      250     20 | 28.322 % |
|       475 |   62817   106697   266625 |    47337      475     29 | 28.322 % |
|       812 |   62812   106637   266491 |    52071      792     33 | 28.328 % |
|      1318 |   62752   106389   265893 |    57278     1169     40 | 28.396 % |
|      2077 |   62752   106389   265893 |    63006     1928     41 | 28.397 % |
|      3216 |   62752   106389   265893 |    69307     3067     54 | 28.396 % |
|      4924 |   62583   105812   264454 |    76238     3961     47 | 28.589 % |
|      7486 |   62520   105410   263512 |    83861     6518     56 | 28.661 % |
|     11330 |   62520   105410   263512 |    92248    10362     64 | 28.661 % |
===============================================================================
restarts              : 61
conflicts             : 14196          (7838 /sec)
decisions             : 41082          (0.00 % random) (22684 /sec)
propagations          : 17415845       (9616287 /sec)
conflict literals     : 866837         (53.36 % deleted)
Memory used           : 34.87 MB
CPU time              : 1.81108 s

UNSATISFIABLE
